SAT
-99 84 -34 -53 71 95 -90 40 -68 23 -57 -70 -11 -10 -41 39 62 -27 -49 -19 15 46 -42 13 -5 -82 -37 -29 8 -72 3 97 -78 -92 -43 28 -4 2 -14 9 -32 -60 -81 -80 21 -83 77 74 61 59 96 79 -44 33 67 -75 -16 -18 76 -66 -30 -69 31 -54 -36 -24 17 -64 25 12 65 -22 -1 38 -7 56 73 -26 -85 -63 -100 -91 -88 -35 -47 -94 -58 50 89 -45 52 -86 -6 -87 98 55 -48 -51 93 20 0
